! ==============================================================
! Auto-generated by elph_manager.x - DO NOT EDIT
! Phase 2: Electron-phonon coupling coefficients
! Uses dvscf saved in Phase 1 (trans=.false.)
! ==============================================================
Aluminum phonons on 4x4x4 q-grid
&INPUTPH
  ! --- Injected by elph_manager.x ---
  trans = .false.,
  electron_phonon = 'lambda_tetra',
  nk1 =   16, nk2 =   16, nk3 =   16,
  k1  =    0, k2  =    0, k3  =    0,
  el_ph_nsigma =   10,
  el_ph_sigma  =   0.0200,
  ! --- End of injected parameters ---
  prefix       = 'Al'
  outdir       = './tmp'
  fildyn       = 'Al.dyn'
  tr2_ph       = 1.0d-14
  ldisp        = .true.
  nq1          = 4
  nq2          = 4
  nq3          = 4
/
